data;
set K:= K1 K2 K3 K4 K5 K6 K7 ;

set F:= F1 F2 ;

set Q:= Q1 Q2 ;

param T:= 45;
param V: 
	K1  K2  K3  K4  K5  K6  K7  :=
Q1	1   1   1   1   0   0   0   
Q2	0   0   0   0   1   1   1   
; # if resorce k is of type q

param TF:= 
K1 6
K2 6
K3 6
K4 6
K5 12
K6 12
K7 12
; # number of continuous time slots resource can fly

param TR:= 
K1 2
K2 2
K3 2
K4 2
K5 4
K6 4
K7 4
; #  number of continuous time slots resource k needs to rest between flights

param P:= 
K1 36
K2 36
K3 36
K4 36
K5 36
K6 36
K7 36
; #  number of continuous time slots a pilot can be present including rest times for resource k 

param N:= 
K1 4
K2 4
K3 4
K4 4
K5 2
K6 2
K7 2
; # max number of flights resource k can fly in the total time period

param A: 
	K1  K2  K3  K4  K5  K6  K7  :=
1	1   1   1   1   1   1   1   
2	1   1   1   1   1   1   1   
3	1   1   1   1   1   1   1   
4	1   1   1   1   1   1   1   
5	1   1   1   1   1   1   1   
6	1   1   1   1   1   1   1   
7	1   1   1   1   1   1   1   
8	1   1   1   1   1   1   1   
9	1   1   1   1   1   1   1   
10	1   1   1   1   1   1   1   
11	1   1   1   1   1   1   1   
12	1   1   1   1   1   1   1   
13	1   1   1   1   1   1   1   
14	1   1   1   1   1   1   1   
15	1   1   1   1   1   1   1   
16	1   1   1   1   1   1   1   
17	1   1   1   1   1   1   1   
18	1   1   1   1   1   1   1   
19	1   1   1   1   1   1   1   
20	1   1   1   1   1   1   1   
21	1   1   1   1   1   1   1   
22	1   1   1   1   1   1   1   
23	1   1   1   1   1   1   1   
24	1   1   1   1   1   1   1   
25	1   1   1   1   1   1   1   
26	1   1   1   1   1   1   1   
27	1   1   1   1   1   1   1   
28	1   1   1   1   1   1   1   
29	1   1   1   1   1   1   1   
30	1   1   1   1   1   1   1   
31	1   1   1   1   1   1   1   
32	1   1   1   1   1   1   1   
33	1   1   1   1   1   1   1   
34	1   1   1   1   1   1   1   
35	1   1   1   1   1   1   1   
36	1   1   1   1   1   1   1   
37	1   1   1   1   1   1   1   
38	1   1   1   1   1   1   1   
39	1   1   1   1   1   1   1   
40	1   1   1   1   1   1   1   
41	1   1   1   1   1   1   1   
42	1   1   1   1   1   1   1   
43	1   1   1   1   1   1   1   
44	1   1   1   1   1   1   1   
45	1   1   1   1   1   1   1   
; # availability of resorce k in time slot t

param B: 
	F1  F2  :=
Q1	0   0   
Q2	0   0   
; # if front f requires resources of type q

param U: 
	F1  F2  :=
K1	0   0   
K2	0   0   
K3	0   0   
K4	0   0   
K5	1   1   
K6	1   1   
K7	2   2   
; # transit time of resource

param C:= 
K1 900
K2 900
K3 1500
K4 4500
K5 5500
K6 5500
K7 5500
; #  water capacity of resource k

param S:= 
F1 9
F2 10
; # max number of resources that can fly at front f in the same time slot

param D:= 

[*,*,F1 ]:  K1    K2    K3    K4    K5    K6    K7    :=
1           1.70  1.70  1.70  1.36  1.02  1.02  1.02  
2           1.70  1.70  1.70  1.36  1.02  1.02  1.02  
3           1.70  1.70  1.70  1.36  1.02  1.02  1.02  
4           1.70  1.70  1.70  1.36  1.02  1.02  1.02  
5           1.70  1.70  1.70  1.36  1.02  1.02  1.02  
6           1.70  1.70  1.70  1.36  1.02  1.02  1.02  
7           1.70  1.70  1.70  1.36  1.02  1.02  1.02  
8           1.70  1.70  1.70  1.36  1.02  1.02  1.02  
9           1.70  1.70  1.70  1.36  1.02  1.02  1.02  
10          1.70  1.70  1.70  1.36  1.02  1.02  1.02  
11          1.70  1.70  1.70  1.36  1.02  1.02  1.02  
12          1.70  1.70  1.70  1.36  1.02  1.02  1.02  
13          1.70  1.70  1.70  1.36  1.02  1.02  1.02  
14          1.70  1.70  1.70  1.36  1.02  1.02  1.02  
15          1.70  1.70  1.70  1.36  1.02  1.02  1.02  
16          1.70  1.70  1.70  1.36  1.02  1.02  1.02  
17          1.70  1.70  1.70  1.36  1.02  1.02  1.02  
18          1.70  1.70  1.70  1.36  1.02  1.02  1.02  
19          1.70  1.70  1.70  1.36  1.02  1.02  1.02  
20          1.70  1.70  1.70  1.36  1.02  1.02  1.02  
21          1.70  1.70  1.70  1.36  1.02  1.02  1.02  
22          1.70  1.70  1.70  1.36  1.02  1.02  1.02  
23          1.70  1.70  1.70  1.36  1.02  1.02  1.02  
24          1.70  1.70  1.70  1.36  1.02  1.02  1.02  
25          1.62  1.62  1.62  1.29  0.97  0.97  0.97  
26          1.62  1.62  1.62  1.29  0.97  0.97  0.97  
27          1.62  1.62  1.62  1.29  0.97  0.97  0.97  
28          1.62  1.62  1.62  1.29  0.97  0.97  0.97  
29          1.62  1.62  1.62  1.29  0.97  0.97  0.97  
30          1.62  1.62  1.62  1.29  0.97  0.97  0.97  
31          1.62  1.62  1.62  1.29  0.97  0.97  0.97  
32          1.62  1.62  1.62  1.29  0.97  0.97  0.97  
33          1.62  1.62  1.62  1.29  0.97  0.97  0.97  
34          1.70  1.70  1.70  1.36  1.02  1.02  1.02  
35          1.70  1.70  1.70  1.36  1.02  1.02  1.02  
36          1.70  1.70  1.70  1.36  1.02  1.02  1.02  
37          1.70  1.70  1.70  1.36  1.02  1.02  1.02  
38          1.70  1.70  1.70  1.36  1.02  1.02  1.02  
39          1.70  1.70  1.70  1.36  1.02  1.02  1.02  
40          1.70  1.70  1.70  1.36  1.02  1.02  1.02  
41          1.70  1.70  1.70  1.36  1.02  1.02  1.02  
42          1.70  1.70  1.70  1.36  1.02  1.02  1.02  
43          1.70  1.70  1.70  1.36  1.02  1.02  1.02  
44          1.70  1.70  1.70  1.36  1.02  1.02  1.02  
45          1.70  1.70  1.70  1.36  1.02  1.02  1.02  

[*,*,F2 ]:  K1    K2    K3    K4    K5    K6    K7    :=
1           1.94  1.94  1.94  1.54  1.16  1.16  1.16  
2           1.94  1.94  1.94  1.54  1.16  1.16  1.16  
3           1.94  1.94  1.94  1.54  1.16  1.16  1.16  
4           1.94  1.94  1.94  1.54  1.16  1.16  1.16  
5           1.94  1.94  1.94  1.54  1.16  1.16  1.16  
6           1.94  1.94  1.94  1.54  1.16  1.16  1.16  
7           1.94  1.94  1.94  1.54  1.16  1.16  1.16  
8           1.94  1.94  1.94  1.54  1.16  1.16  1.16  
9           1.94  1.94  1.94  1.54  1.16  1.16  1.16  
10          1.94  1.94  1.94  1.54  1.16  1.16  1.16  
11          1.94  1.94  1.94  1.54  1.16  1.16  1.16  
12          1.94  1.94  1.94  1.54  1.16  1.16  1.16  
13          1.94  1.94  1.94  1.54  1.16  1.16  1.16  
14          1.94  1.94  1.94  1.54  1.16  1.16  1.16  
15          1.94  1.94  1.94  1.54  1.16  1.16  1.16  
16          1.94  1.94  1.94  1.54  1.16  1.16  1.16  
17          1.94  1.94  1.94  1.54  1.16  1.16  1.16  
18          1.94  1.94  1.94  1.54  1.16  1.16  1.16  
19          1.94  1.94  1.94  1.54  1.16  1.16  1.16  
20          1.94  1.94  1.94  1.54  1.16  1.16  1.16  
21          1.94  1.94  1.94  1.54  1.16  1.16  1.16  
22          1.94  1.94  1.94  1.54  1.16  1.16  1.16  
23          1.94  1.94  1.94  1.54  1.16  1.16  1.16  
24          1.94  1.94  1.94  1.54  1.16  1.16  1.16  
25          1.84  1.84  1.84  1.47  1.10  1.10  1.10  
26          1.84  1.84  1.84  1.47  1.10  1.10  1.10  
27          1.84  1.84  1.84  1.47  1.10  1.10  1.10  
28          1.84  1.84  1.84  1.47  1.10  1.10  1.10  
29          1.84  1.84  1.84  1.47  1.10  1.10  1.10  
30          1.84  1.84  1.84  1.47  1.10  1.10  1.10  
31          1.84  1.84  1.84  1.47  1.10  1.10  1.10  
32          1.84  1.84  1.84  1.47  1.10  1.10  1.10  
33          1.84  1.84  1.84  1.47  1.10  1.10  1.10  
34          1.94  1.94  1.94  1.54  1.16  1.16  1.16  
35          1.94  1.94  1.94  1.54  1.16  1.16  1.16  
36          1.94  1.94  1.94  1.54  1.16  1.16  1.16  
37          1.94  1.94  1.94  1.54  1.16  1.16  1.16  
38          1.94  1.94  1.94  1.54  1.16  1.16  1.16  
39          1.94  1.94  1.94  1.54  1.16  1.16  1.16  
40          1.94  1.94  1.94  1.54  1.16  1.16  1.16  
41          1.94  1.94  1.94  1.54  1.16  1.16  1.16  
42          1.94  1.94  1.94  1.54  1.16  1.16  1.16  
43          1.94  1.94  1.94  1.54  1.16  1.16  1.16  
44          1.94  1.94  1.94  1.54  1.16  1.16  1.16  
45          1.94  1.94  1.94  1.54  1.16  1.16  1.16  
; # downloads resource k can do at front f in time t if intermediate time slot

param E:= 

[*,*,F1 ]:  K1    K2    K3    K4    K5    K6    K7    :=
1           0.70  0.27  0.14  0.71  0.48  0.05  0.35  
2           0.70  0.27  0.14  0.71  0.48  0.05  0.35  
3           0.70  0.27  0.14  0.71  0.48  0.05  0.35  
4           0.70  0.27  0.14  0.71  0.48  0.05  0.35  
5           0.70  0.27  0.14  0.71  0.48  0.05  0.35  
6           0.70  0.27  0.14  0.71  0.48  0.05  0.35  
7           0.70  0.27  0.14  0.71  0.48  0.05  0.35  
8           0.70  0.27  0.14  0.71  0.48  0.05  0.35  
9           0.70  0.27  0.14  0.71  0.48  0.05  0.35  
10          0.70  0.27  0.14  0.71  0.48  0.05  0.35  
11          0.70  0.27  0.14  0.71  0.48  0.05  0.35  
12          0.70  0.27  0.14  0.71  0.48  0.05  0.35  
13          0.70  0.27  0.14  0.71  0.48  0.05  0.35  
14          0.70  0.27  0.14  0.71  0.48  0.05  0.35  
15          0.70  0.27  0.14  0.71  0.48  0.05  0.35  
16          0.70  0.27  0.14  0.71  0.48  0.05  0.35  
17          0.70  0.27  0.14  0.71  0.48  0.05  0.35  
18          0.70  0.27  0.14  0.71  0.48  0.05  0.35  
19          0.70  0.27  0.14  0.71  0.48  0.05  0.35  
20          0.70  0.27  0.14  0.71  0.48  0.05  0.35  
21          0.70  0.27  0.14  0.71  0.48  0.05  0.35  
22          0.70  0.27  0.14  0.71  0.48  0.05  0.35  
23          0.70  0.27  0.14  0.71  0.48  0.05  0.35  
24          0.70  0.27  0.14  0.71  0.48  0.05  0.35  
25          0.66  0.26  0.13  0.67  0.46  0.05  0.33  
26          0.66  0.26  0.13  0.67  0.46  0.05  0.33  
27          0.66  0.26  0.13  0.67  0.46  0.05  0.33  
28          0.66  0.26  0.13  0.67  0.46  0.05  0.33  
29          0.66  0.26  0.13  0.67  0.46  0.05  0.33  
30          0.66  0.26  0.13  0.67  0.46  0.05  0.33  
31          0.66  0.26  0.13  0.67  0.46  0.05  0.33  
32          0.66  0.26  0.13  0.67  0.46  0.05  0.33  
33          0.66  0.26  0.13  0.67  0.46  0.05  0.33  
34          0.70  0.27  0.14  0.71  0.48  0.05  0.35  
35          0.70  0.27  0.14  0.71  0.48  0.05  0.35  
36          0.70  0.27  0.14  0.71  0.48  0.05  0.35  
37          0.70  0.27  0.14  0.71  0.48  0.05  0.35  
38          0.70  0.27  0.14  0.71  0.48  0.05  0.35  
39          0.70  0.27  0.14  0.71  0.48  0.05  0.35  
40          0.70  0.27  0.14  0.71  0.48  0.05  0.35  
41          0.70  0.27  0.14  0.71  0.48  0.05  0.35  
42          0.70  0.27  0.14  0.71  0.48  0.05  0.35  
43          0.70  0.27  0.14  0.71  0.48  0.05  0.35  
44          0.70  0.27  0.14  0.71  0.48  0.05  0.35  
45          0.70  0.27  0.14  0.71  0.48  0.05  0.35  

[*,*,F2 ]:  K1    K2    K3    K4    K5    K6    K7    :=
1           0.89  0.33  0.25  0.66  0.64  0.01  0.43  
2           0.89  0.33  0.25  0.66  0.64  0.01  0.43  
3           0.89  0.33  0.25  0.66  0.64  0.01  0.43  
4           0.89  0.33  0.25  0.66  0.64  0.01  0.43  
5           0.89  0.33  0.25  0.66  0.64  0.01  0.43  
6           0.89  0.33  0.25  0.66  0.64  0.01  0.43  
7           0.89  0.33  0.25  0.66  0.64  0.01  0.43  
8           0.89  0.33  0.25  0.66  0.64  0.01  0.43  
9           0.89  0.33  0.25  0.66  0.64  0.01  0.43  
10          0.89  0.33  0.25  0.66  0.64  0.01  0.43  
11          0.89  0.33  0.25  0.66  0.64  0.01  0.43  
12          0.89  0.33  0.25  0.66  0.64  0.01  0.43  
13          0.89  0.33  0.25  0.66  0.64  0.01  0.43  
14          0.89  0.33  0.25  0.66  0.64  0.01  0.43  
15          0.89  0.33  0.25  0.66  0.64  0.01  0.43  
16          0.89  0.33  0.25  0.66  0.64  0.01  0.43  
17          0.89  0.33  0.25  0.66  0.64  0.01  0.43  
18          0.89  0.33  0.25  0.66  0.64  0.01  0.43  
19          0.89  0.33  0.25  0.66  0.64  0.01  0.43  
20          0.89  0.33  0.25  0.66  0.64  0.01  0.43  
21          0.89  0.33  0.25  0.66  0.64  0.01  0.43  
22          0.89  0.33  0.25  0.66  0.64  0.01  0.43  
23          0.89  0.33  0.25  0.66  0.64  0.01  0.43  
24          0.89  0.33  0.25  0.66  0.64  0.01  0.43  
25          0.85  0.31  0.24  0.63  0.61  0.01  0.41  
26          0.85  0.31  0.24  0.63  0.61  0.01  0.41  
27          0.85  0.31  0.24  0.63  0.61  0.01  0.41  
28          0.85  0.31  0.24  0.63  0.61  0.01  0.41  
29          0.85  0.31  0.24  0.63  0.61  0.01  0.41  
30          0.85  0.31  0.24  0.63  0.61  0.01  0.41  
31          0.85  0.31  0.24  0.63  0.61  0.01  0.41  
32          0.85  0.31  0.24  0.63  0.61  0.01  0.41  
33          0.85  0.31  0.24  0.63  0.61  0.01  0.41  
34          0.89  0.33  0.25  0.66  0.64  0.01  0.43  
35          0.89  0.33  0.25  0.66  0.64  0.01  0.43  
36          0.89  0.33  0.25  0.66  0.64  0.01  0.43  
37          0.89  0.33  0.25  0.66  0.64  0.01  0.43  
38          0.89  0.33  0.25  0.66  0.64  0.01  0.43  
39          0.89  0.33  0.25  0.66  0.64  0.01  0.43  
40          0.89  0.33  0.25  0.66  0.64  0.01  0.43  
41          0.89  0.33  0.25  0.66  0.64  0.01  0.43  
42          0.89  0.33  0.25  0.66  0.64  0.01  0.43  
43          0.89  0.33  0.25  0.66  0.64  0.01  0.43  
44          0.89  0.33  0.25  0.66  0.64  0.01  0.43  
45          0.89  0.33  0.25  0.66  0.64  0.01  0.43  
; # downloads resource k can do at front f in time t if starting or ending flight

param W: 
	F1        F2        :=
1	1244.83   670.29    
2	4979.30   2681.16   
3	4979.30   2681.16   
4	4979.30   2681.16   
5	4979.30   2681.16   
6	4979.30   2681.16   
7	4979.30   2681.16   
8	4979.30   2681.16   
9	4979.30   2681.16   
10	4979.30   2681.16   
11	4979.30   2681.16   
12	4979.30   2681.16   
13	4979.30   2681.16   
14	4979.30   2681.16   
15	4979.30   2681.16   
16	4979.30   2681.16   
17	4979.30   2681.16   
18	4979.30   2681.16   
19	2213.02   1191.63   
20	2213.02   1191.63   
21	2213.02   1191.63   
22	2213.02   1191.63   
23	2213.02   1191.63   
24	2213.02   1191.63   
25	2213.02   1191.63   
26	2213.02   1191.63   
27	2213.02   1191.63   
28	2213.02   1191.63   
29	2213.02   1191.63   
30	2213.02   1191.63   
31	2213.02   1191.63   
32	2213.02   1191.63   
33	2213.02   1191.63   
34	2213.02   1191.63   
35	2213.02   1191.63   
36	2213.02   1191.63   
37	2213.02   1191.63   
38	2213.02   1191.63   
39	2213.02   1191.63   
40	2213.02   1191.63   
41	2213.02   1191.63   
42	2213.02   1191.63   
43	2213.02   1191.63   
44	2213.02   1191.63   
45	553.26    297.91    
; # water needed at front f in time slot t

param M := 100000000; 

param a1:= 10000000;

param a2:= 100;

param a3:= 0.0001;
